; benchmark generated from python API
(set-info :status unknown)
(declare-fun stdin0 () (_ BitVec 8))
(declare-fun stdin1 () (_ BitVec 8))
(declare-fun stdin2 () (_ BitVec 8))
(declare-fun stdin3 () (_ BitVec 8))
(declare-fun stdin4 () (_ BitVec 8))
(declare-fun stdin5 () (_ BitVec 8))
(declare-fun stdin6 () (_ BitVec 8))
(declare-fun stdin7 () (_ BitVec 8))
(assert
 (not (= ((_ zero_extend 16) (concat stdin1 stdin0)) (_ bv19789 32))))
(assert
 (not (not (= ((_ zero_extend 16) (concat stdin1 stdin0)) (_ bv18761 32)))))
(assert
 (not (= ((_ zero_extend 16) (concat stdin1 stdin0)) (_ bv19789 32))))
(assert
 (not (not (= ((_ zero_extend 16) (concat stdin3 stdin2)) (_ bv42 32)))))
(assert
 (= ((_ zero_extend 16) (concat stdin3 stdin2)) (_ bv42 32)))
(assert
 (let ((?x101767 ((_ zero_extend 32) (concat stdin7 (concat stdin6 (concat stdin5 stdin4))))))
 (let ((?x244833 (concat ((_ extract 31 24) ?x101767) (concat ((_ extract 23 16) ?x101767) (concat ((_ extract 15 8) ?x101767) ((_ extract 7 0) ?x101767))))))
 (let ((?x79498 (concat ((_ extract 55 48) ?x101767) (concat ((_ extract 47 40) ?x101767) (concat ((_ extract 39 32) ?x101767) ?x244833)))))
 (let ((?x295885 (concat ((_ extract 63 56) ?x101767) ?x79498)))
 (let ((?x252914 (concat ((_ extract 31 24) ?x295885) (concat ((_ extract 23 16) ?x295885) (concat ((_ extract 15 8) ?x295885) ((_ extract 7 0) ?x295885))))))
 (let ((?x379234 (concat ((_ extract 55 48) ?x295885) (concat ((_ extract 47 40) ?x295885) (concat ((_ extract 39 32) ?x295885) ?x252914)))))
 (let ((?x7270 (concat ((_ extract 63 56) ?x295885) ?x379234)))
 (not (= ?x7270 (_ bv0 64)))))))))))
(assert
 (let ((?x101767 ((_ zero_extend 32) (concat stdin7 (concat stdin6 (concat stdin5 stdin4))))))
 (let ((?x244833 (concat ((_ extract 31 24) ?x101767) (concat ((_ extract 23 16) ?x101767) (concat ((_ extract 15 8) ?x101767) ((_ extract 7 0) ?x101767))))))
 (let ((?x79498 (concat ((_ extract 55 48) ?x101767) (concat ((_ extract 47 40) ?x101767) (concat ((_ extract 39 32) ?x101767) ?x244833)))))
 (let ((?x295885 (concat ((_ extract 63 56) ?x101767) ?x79498)))
 (let ((?x252914 (concat ((_ extract 31 24) ?x295885) (concat ((_ extract 23 16) ?x295885) (concat ((_ extract 15 8) ?x295885) ((_ extract 7 0) ?x295885))))))
 (let ((?x379234 (concat ((_ extract 55 48) ?x295885) (concat ((_ extract 47 40) ?x295885) (concat ((_ extract 39 32) ?x295885) ?x252914)))))
 (let ((?x7270 (concat ((_ extract 63 56) ?x295885) ?x379234)))
 (let ((?x260252 (concat ((_ extract 31 24) ?x7270) (concat ((_ extract 23 16) ?x7270) (concat ((_ extract 15 8) ?x7270) ((_ extract 7 0) ?x7270))))))
 (let ((?x268026 (concat ((_ extract 55 48) ?x7270) (concat ((_ extract 47 40) ?x7270) (concat ((_ extract 39 32) ?x7270) ?x260252)))))
 (let ((?x339629 (concat ((_ extract 63 56) ?x7270) ?x268026)))
 (let ((?x79756 (concat ((_ extract 31 24) ?x339629) (concat ((_ extract 23 16) ?x339629) (concat ((_ extract 15 8) ?x339629) ((_ extract 7 0) ?x339629))))))
 (let ((?x24660 (concat ((_ extract 55 48) ?x339629) (concat ((_ extract 47 40) ?x339629) (concat ((_ extract 39 32) ?x339629) ?x79756)))))
 (let ((?x147847 (concat ((_ extract 63 56) ?x339629) ?x24660)))
 (not (bvugt ?x147847 (_ bv9223372036854775807 64)))))))))))))))))
(assert
 (let ((?x101767 ((_ zero_extend 32) (concat stdin7 (concat stdin6 (concat stdin5 stdin4))))))
 (let ((?x244833 (concat ((_ extract 31 24) ?x101767) (concat ((_ extract 23 16) ?x101767) (concat ((_ extract 15 8) ?x101767) ((_ extract 7 0) ?x101767))))))
 (let ((?x79498 (concat ((_ extract 55 48) ?x101767) (concat ((_ extract 47 40) ?x101767) (concat ((_ extract 39 32) ?x101767) ?x244833)))))
 (let ((?x295885 (concat ((_ extract 63 56) ?x101767) ?x79498)))
 (let ((?x252914 (concat ((_ extract 31 24) ?x295885) (concat ((_ extract 23 16) ?x295885) (concat ((_ extract 15 8) ?x295885) ((_ extract 7 0) ?x295885))))))
 (let ((?x379234 (concat ((_ extract 55 48) ?x295885) (concat ((_ extract 47 40) ?x295885) (concat ((_ extract 39 32) ?x295885) ?x252914)))))
 (let ((?x7270 (concat ((_ extract 63 56) ?x295885) ?x379234)))
 (let ((?x260252 (concat ((_ extract 31 24) ?x7270) (concat ((_ extract 23 16) ?x7270) (concat ((_ extract 15 8) ?x7270) ((_ extract 7 0) ?x7270))))))
 (let ((?x268026 (concat ((_ extract 55 48) ?x7270) (concat ((_ extract 47 40) ?x7270) (concat ((_ extract 39 32) ?x7270) ?x260252)))))
 (let ((?x339629 (concat ((_ extract 63 56) ?x7270) ?x268026)))
 (let ((?x79756 (concat ((_ extract 31 24) ?x339629) (concat ((_ extract 23 16) ?x339629) (concat ((_ extract 15 8) ?x339629) ((_ extract 7 0) ?x339629))))))
 (let ((?x24660 (concat ((_ extract 55 48) ?x339629) (concat ((_ extract 47 40) ?x339629) (concat ((_ extract 39 32) ?x339629) ?x79756)))))
 (let ((?x147847 (concat ((_ extract 63 56) ?x339629) ?x24660)))
 (let ((?x204174 (concat ((_ extract 31 24) ?x147847) (concat ((_ extract 23 16) ?x147847) (concat ((_ extract 15 8) ?x147847) ((_ extract 7 0) ?x147847))))))
 (let ((?x309692 (concat ((_ extract 55 48) ?x147847) (concat ((_ extract 47 40) ?x147847) (concat ((_ extract 39 32) ?x147847) ?x204174)))))
 (let ((?x245395 (concat ((_ extract 63 56) ?x147847) ?x309692)))
 (let ((?x246047 (concat ((_ extract 23 16) (bvadd ?x245395 (_ bv2 64))) (concat ((_ extract 15 8) (bvadd ?x245395 (_ bv2 64))) ((_ extract 7 0) (bvadd ?x245395 (_ bv2 64)))))))
 (let ((?x74991 (concat ((_ extract 39 32) (bvadd ?x245395 (_ bv2 64))) (concat ((_ extract 31 24) (bvadd ?x245395 (_ bv2 64))) ?x246047))))
 (let ((?x130076 (concat ((_ extract 55 48) (bvadd ?x245395 (_ bv2 64))) (concat ((_ extract 47 40) (bvadd ?x245395 (_ bv2 64))) ?x74991))))
 (let ((?x11377 (concat ((_ extract 63 56) (bvadd ?x245395 (_ bv2 64))) ?x130076)))
 (not (bvslt ?x11377 ?x245395)))))))))))))))))))))))
(assert
 (let ((?x101767 ((_ zero_extend 32) (concat stdin7 (concat stdin6 (concat stdin5 stdin4))))))
 (let ((?x244833 (concat ((_ extract 31 24) ?x101767) (concat ((_ extract 23 16) ?x101767) (concat ((_ extract 15 8) ?x101767) ((_ extract 7 0) ?x101767))))))
 (let ((?x79498 (concat ((_ extract 55 48) ?x101767) (concat ((_ extract 47 40) ?x101767) (concat ((_ extract 39 32) ?x101767) ?x244833)))))
 (let ((?x295885 (concat ((_ extract 63 56) ?x101767) ?x79498)))
 (let ((?x252914 (concat ((_ extract 31 24) ?x295885) (concat ((_ extract 23 16) ?x295885) (concat ((_ extract 15 8) ?x295885) ((_ extract 7 0) ?x295885))))))
 (let ((?x379234 (concat ((_ extract 55 48) ?x295885) (concat ((_ extract 47 40) ?x295885) (concat ((_ extract 39 32) ?x295885) ?x252914)))))
 (let ((?x7270 (concat ((_ extract 63 56) ?x295885) ?x379234)))
 (let ((?x260252 (concat ((_ extract 31 24) ?x7270) (concat ((_ extract 23 16) ?x7270) (concat ((_ extract 15 8) ?x7270) ((_ extract 7 0) ?x7270))))))
 (let ((?x268026 (concat ((_ extract 55 48) ?x7270) (concat ((_ extract 47 40) ?x7270) (concat ((_ extract 39 32) ?x7270) ?x260252)))))
 (let ((?x339629 (concat ((_ extract 63 56) ?x7270) ?x268026)))
 (let ((?x79756 (concat ((_ extract 31 24) ?x339629) (concat ((_ extract 23 16) ?x339629) (concat ((_ extract 15 8) ?x339629) ((_ extract 7 0) ?x339629))))))
 (let ((?x24660 (concat ((_ extract 55 48) ?x339629) (concat ((_ extract 47 40) ?x339629) (concat ((_ extract 39 32) ?x339629) ?x79756)))))
 (let ((?x147847 (concat ((_ extract 63 56) ?x339629) ?x24660)))
 (let ((?x204174 (concat ((_ extract 31 24) ?x147847) (concat ((_ extract 23 16) ?x147847) (concat ((_ extract 15 8) ?x147847) ((_ extract 7 0) ?x147847))))))
 (let ((?x309692 (concat ((_ extract 55 48) ?x147847) (concat ((_ extract 47 40) ?x147847) (concat ((_ extract 39 32) ?x147847) ?x204174)))))
 (let ((?x245395 (concat ((_ extract 63 56) ?x147847) ?x309692)))
 (let ((?x320857 (bvadd ?x245395 (_ bv2 64))))
 (let ((?x35872 (concat ((_ extract 31 24) ?x320857) (concat ((_ extract 23 16) ?x320857) (concat ((_ extract 15 8) ?x320857) ((_ extract 7 0) ?x320857))))))
 (let ((?x130076 (concat ((_ extract 55 48) ?x320857) (concat ((_ extract 47 40) ?x320857) (concat ((_ extract 39 32) ?x320857) ?x35872)))))
 (let ((?x11377 (concat ((_ extract 63 56) ?x320857) ?x130076)))
 (not (bvslt ?x11377 (_ bv2 64))))))))))))))))))))))))
(assert
 (let ((?x101767 ((_ zero_extend 32) (concat stdin7 (concat stdin6 (concat stdin5 stdin4))))))
 (let ((?x244833 (concat ((_ extract 31 24) ?x101767) (concat ((_ extract 23 16) ?x101767) (concat ((_ extract 15 8) ?x101767) ((_ extract 7 0) ?x101767))))))
 (let ((?x79498 (concat ((_ extract 55 48) ?x101767) (concat ((_ extract 47 40) ?x101767) (concat ((_ extract 39 32) ?x101767) ?x244833)))))
 (let ((?x295885 (concat ((_ extract 63 56) ?x101767) ?x79498)))
 (let ((?x252914 (concat ((_ extract 31 24) ?x295885) (concat ((_ extract 23 16) ?x295885) (concat ((_ extract 15 8) ?x295885) ((_ extract 7 0) ?x295885))))))
 (let ((?x379234 (concat ((_ extract 55 48) ?x295885) (concat ((_ extract 47 40) ?x295885) (concat ((_ extract 39 32) ?x295885) ?x252914)))))
 (let ((?x7270 (concat ((_ extract 63 56) ?x295885) ?x379234)))
 (let ((?x260252 (concat ((_ extract 31 24) ?x7270) (concat ((_ extract 23 16) ?x7270) (concat ((_ extract 15 8) ?x7270) ((_ extract 7 0) ?x7270))))))
 (let ((?x268026 (concat ((_ extract 55 48) ?x7270) (concat ((_ extract 47 40) ?x7270) (concat ((_ extract 39 32) ?x7270) ?x260252)))))
 (let ((?x339629 (concat ((_ extract 63 56) ?x7270) ?x268026)))
 (let ((?x79756 (concat ((_ extract 31 24) ?x339629) (concat ((_ extract 23 16) ?x339629) (concat ((_ extract 15 8) ?x339629) ((_ extract 7 0) ?x339629))))))
 (let ((?x24660 (concat ((_ extract 55 48) ?x339629) (concat ((_ extract 47 40) ?x339629) (concat ((_ extract 39 32) ?x339629) ?x79756)))))
 (let ((?x147847 (concat ((_ extract 63 56) ?x339629) ?x24660)))
 (let ((?x204174 (concat ((_ extract 31 24) ?x147847) (concat ((_ extract 23 16) ?x147847) (concat ((_ extract 15 8) ?x147847) ((_ extract 7 0) ?x147847))))))
 (let ((?x309692 (concat ((_ extract 55 48) ?x147847) (concat ((_ extract 47 40) ?x147847) (concat ((_ extract 39 32) ?x147847) ?x204174)))))
 (let ((?x245395 (concat ((_ extract 63 56) ?x147847) ?x309692)))
 (let ((?x320857 (bvadd ?x245395 (_ bv2 64))))
 (let ((?x35872 (concat ((_ extract 31 24) ?x320857) (concat ((_ extract 23 16) ?x320857) (concat ((_ extract 15 8) ?x320857) ((_ extract 7 0) ?x320857))))))
 (let ((?x130076 (concat ((_ extract 55 48) ?x320857) (concat ((_ extract 47 40) ?x320857) (concat ((_ extract 39 32) ?x320857) ?x35872)))))
 (let ((?x11377 (concat ((_ extract 63 56) ?x320857) ?x130076)))
 (not (bvsgt ?x11377 (_ bv448 64))))))))))))))))))))))))
(assert
 (let ((?x101767 ((_ zero_extend 32) (concat stdin7 (concat stdin6 (concat stdin5 stdin4))))))
 (let ((?x244833 (concat ((_ extract 31 24) ?x101767) (concat ((_ extract 23 16) ?x101767) (concat ((_ extract 15 8) ?x101767) ((_ extract 7 0) ?x101767))))))
 (let ((?x79498 (concat ((_ extract 55 48) ?x101767) (concat ((_ extract 47 40) ?x101767) (concat ((_ extract 39 32) ?x101767) ?x244833)))))
 (let ((?x295885 (concat ((_ extract 63 56) ?x101767) ?x79498)))
 (let ((?x252914 (concat ((_ extract 31 24) ?x295885) (concat ((_ extract 23 16) ?x295885) (concat ((_ extract 15 8) ?x295885) ((_ extract 7 0) ?x295885))))))
 (let ((?x379234 (concat ((_ extract 55 48) ?x295885) (concat ((_ extract 47 40) ?x295885) (concat ((_ extract 39 32) ?x295885) ?x252914)))))
 (let ((?x7270 (concat ((_ extract 63 56) ?x295885) ?x379234)))
 (let ((?x260252 (concat ((_ extract 31 24) ?x7270) (concat ((_ extract 23 16) ?x7270) (concat ((_ extract 15 8) ?x7270) ((_ extract 7 0) ?x7270))))))
 (let ((?x268026 (concat ((_ extract 55 48) ?x7270) (concat ((_ extract 47 40) ?x7270) (concat ((_ extract 39 32) ?x7270) ?x260252)))))
 (let ((?x339629 (concat ((_ extract 63 56) ?x7270) ?x268026)))
 (let ((?x79756 (concat ((_ extract 31 24) ?x339629) (concat ((_ extract 23 16) ?x339629) (concat ((_ extract 15 8) ?x339629) ((_ extract 7 0) ?x339629))))))
 (let ((?x24660 (concat ((_ extract 55 48) ?x339629) (concat ((_ extract 47 40) ?x339629) (concat ((_ extract 39 32) ?x339629) ?x79756)))))
 (let ((?x147847 (concat ((_ extract 63 56) ?x339629) ?x24660)))
 (let ((?x204174 (concat ((_ extract 31 24) ?x147847) (concat ((_ extract 23 16) ?x147847) (concat ((_ extract 15 8) ?x147847) ((_ extract 7 0) ?x147847))))))
 (let ((?x309692 (concat ((_ extract 55 48) ?x147847) (concat ((_ extract 47 40) ?x147847) (concat ((_ extract 39 32) ?x147847) ?x204174)))))
 (let ((?x245395 (concat ((_ extract 63 56) ?x147847) ?x309692)))
 (let ((?x225429 (bvadd (bvmul ?x245395 (_ bv1 64)) (_ bv140179312209920 64))))
 (let ((?x249818 (concat ((_ extract 31 24) ?x225429) (concat ((_ extract 23 16) ?x225429) (concat ((_ extract 15 8) ?x225429) ((_ extract 7 0) ?x225429))))))
 (let ((?x268458 (concat ((_ extract 55 48) ?x225429) (concat ((_ extract 47 40) ?x225429) (concat ((_ extract 39 32) ?x225429) ?x249818)))))
 (= (concat ((_ extract 63 56) ?x225429) ?x268458) (_ bv140179312210018 64))))))))))))))))))))))
(assert
 (let ((?x101767 ((_ zero_extend 32) (concat stdin7 (concat stdin6 (concat stdin5 stdin4))))))
 (let ((?x244833 (concat ((_ extract 31 24) ?x101767) (concat ((_ extract 23 16) ?x101767) (concat ((_ extract 15 8) ?x101767) ((_ extract 7 0) ?x101767))))))
 (let ((?x79498 (concat ((_ extract 55 48) ?x101767) (concat ((_ extract 47 40) ?x101767) (concat ((_ extract 39 32) ?x101767) ?x244833)))))
 (let ((?x295885 (concat ((_ extract 63 56) ?x101767) ?x79498)))
 (let ((?x252914 (concat ((_ extract 31 24) ?x295885) (concat ((_ extract 23 16) ?x295885) (concat ((_ extract 15 8) ?x295885) ((_ extract 7 0) ?x295885))))))
 (let ((?x379234 (concat ((_ extract 55 48) ?x295885) (concat ((_ extract 47 40) ?x295885) (concat ((_ extract 39 32) ?x295885) ?x252914)))))
 (let ((?x7270 (concat ((_ extract 63 56) ?x295885) ?x379234)))
 (let ((?x260252 (concat ((_ extract 31 24) ?x7270) (concat ((_ extract 23 16) ?x7270) (concat ((_ extract 15 8) ?x7270) ((_ extract 7 0) ?x7270))))))
 (let ((?x268026 (concat ((_ extract 55 48) ?x7270) (concat ((_ extract 47 40) ?x7270) (concat ((_ extract 39 32) ?x7270) ?x260252)))))
 (let ((?x339629 (concat ((_ extract 63 56) ?x7270) ?x268026)))
 (let ((?x79756 (concat ((_ extract 31 24) ?x339629) (concat ((_ extract 23 16) ?x339629) (concat ((_ extract 15 8) ?x339629) ((_ extract 7 0) ?x339629))))))
 (let ((?x24660 (concat ((_ extract 55 48) ?x339629) (concat ((_ extract 47 40) ?x339629) (concat ((_ extract 39 32) ?x339629) ?x79756)))))
 (let ((?x147847 (concat ((_ extract 63 56) ?x339629) ?x24660)))
 (let ((?x204174 (concat ((_ extract 31 24) ?x147847) (concat ((_ extract 23 16) ?x147847) (concat ((_ extract 15 8) ?x147847) ((_ extract 7 0) ?x147847))))))
 (let ((?x309692 (concat ((_ extract 55 48) ?x147847) (concat ((_ extract 47 40) ?x147847) (concat ((_ extract 39 32) ?x147847) ?x204174)))))
 (let ((?x245395 (concat ((_ extract 63 56) ?x147847) ?x309692)))
 (let ((?x320857 (bvadd ?x245395 (_ bv2 64))))
 (let ((?x35872 (concat ((_ extract 31 24) ?x320857) (concat ((_ extract 23 16) ?x320857) (concat ((_ extract 15 8) ?x320857) ((_ extract 7 0) ?x320857))))))
 (let ((?x130076 (concat ((_ extract 55 48) ?x320857) (concat ((_ extract 47 40) ?x320857) (concat ((_ extract 39 32) ?x320857) ?x35872)))))
 (let ((?x11377 (concat ((_ extract 63 56) ?x320857) ?x130076)))
 (let ((?x325849 (concat ((_ extract 23 16) (bvadd ?x11377 (_ bv216 64))) (concat ((_ extract 15 8) (bvadd ?x11377 (_ bv216 64))) ((_ extract 7 0) (bvadd ?x11377 (_ bv216 64)))))))
 (let ((?x141951 (concat ((_ extract 39 32) (bvadd ?x11377 (_ bv216 64))) (concat ((_ extract 31 24) (bvadd ?x11377 (_ bv216 64))) ?x325849))))
 (let ((?x1026 (concat ((_ extract 55 48) (bvadd ?x11377 (_ bv216 64))) (concat ((_ extract 47 40) (bvadd ?x11377 (_ bv216 64))) ?x141951))))
 (let ((?x262983 (concat ((_ extract 63 56) (bvadd ?x11377 (_ bv216 64))) ?x1026)))
 (not (bvslt ?x262983 ?x11377)))))))))))))))))))))))))))
(assert
 (let ((?x101767 ((_ zero_extend 32) (concat stdin7 (concat stdin6 (concat stdin5 stdin4))))))
 (let ((?x244833 (concat ((_ extract 31 24) ?x101767) (concat ((_ extract 23 16) ?x101767) (concat ((_ extract 15 8) ?x101767) ((_ extract 7 0) ?x101767))))))
 (let ((?x79498 (concat ((_ extract 55 48) ?x101767) (concat ((_ extract 47 40) ?x101767) (concat ((_ extract 39 32) ?x101767) ?x244833)))))
 (let ((?x295885 (concat ((_ extract 63 56) ?x101767) ?x79498)))
 (let ((?x252914 (concat ((_ extract 31 24) ?x295885) (concat ((_ extract 23 16) ?x295885) (concat ((_ extract 15 8) ?x295885) ((_ extract 7 0) ?x295885))))))
 (let ((?x379234 (concat ((_ extract 55 48) ?x295885) (concat ((_ extract 47 40) ?x295885) (concat ((_ extract 39 32) ?x295885) ?x252914)))))
 (let ((?x7270 (concat ((_ extract 63 56) ?x295885) ?x379234)))
 (let ((?x260252 (concat ((_ extract 31 24) ?x7270) (concat ((_ extract 23 16) ?x7270) (concat ((_ extract 15 8) ?x7270) ((_ extract 7 0) ?x7270))))))
 (let ((?x268026 (concat ((_ extract 55 48) ?x7270) (concat ((_ extract 47 40) ?x7270) (concat ((_ extract 39 32) ?x7270) ?x260252)))))
 (let ((?x339629 (concat ((_ extract 63 56) ?x7270) ?x268026)))
 (let ((?x79756 (concat ((_ extract 31 24) ?x339629) (concat ((_ extract 23 16) ?x339629) (concat ((_ extract 15 8) ?x339629) ((_ extract 7 0) ?x339629))))))
 (let ((?x24660 (concat ((_ extract 55 48) ?x339629) (concat ((_ extract 47 40) ?x339629) (concat ((_ extract 39 32) ?x339629) ?x79756)))))
 (let ((?x147847 (concat ((_ extract 63 56) ?x339629) ?x24660)))
 (let ((?x204174 (concat ((_ extract 31 24) ?x147847) (concat ((_ extract 23 16) ?x147847) (concat ((_ extract 15 8) ?x147847) ((_ extract 7 0) ?x147847))))))
 (let ((?x309692 (concat ((_ extract 55 48) ?x147847) (concat ((_ extract 47 40) ?x147847) (concat ((_ extract 39 32) ?x147847) ?x204174)))))
 (let ((?x245395 (concat ((_ extract 63 56) ?x147847) ?x309692)))
 (let ((?x320857 (bvadd ?x245395 (_ bv2 64))))
 (let ((?x35872 (concat ((_ extract 31 24) ?x320857) (concat ((_ extract 23 16) ?x320857) (concat ((_ extract 15 8) ?x320857) ((_ extract 7 0) ?x320857))))))
 (let ((?x130076 (concat ((_ extract 55 48) ?x320857) (concat ((_ extract 47 40) ?x320857) (concat ((_ extract 39 32) ?x320857) ?x35872)))))
 (let ((?x11377 (concat ((_ extract 63 56) ?x320857) ?x130076)))
 (let ((?x282178 (bvadd ?x11377 (_ bv216 64))))
 (let ((?x37981 (concat ((_ extract 31 24) ?x282178) (concat ((_ extract 23 16) ?x282178) (concat ((_ extract 15 8) ?x282178) ((_ extract 7 0) ?x282178))))))
 (let ((?x1026 (concat ((_ extract 55 48) ?x282178) (concat ((_ extract 47 40) ?x282178) (concat ((_ extract 39 32) ?x282178) ?x37981)))))
 (let ((?x262983 (concat ((_ extract 63 56) ?x282178) ?x1026)))
 (not (bvslt ?x262983 (_ bv216 64))))))))))))))))))))))))))))
(assert
 (let ((?x101767 ((_ zero_extend 32) (concat stdin7 (concat stdin6 (concat stdin5 stdin4))))))
 (let ((?x244833 (concat ((_ extract 31 24) ?x101767) (concat ((_ extract 23 16) ?x101767) (concat ((_ extract 15 8) ?x101767) ((_ extract 7 0) ?x101767))))))
 (let ((?x79498 (concat ((_ extract 55 48) ?x101767) (concat ((_ extract 47 40) ?x101767) (concat ((_ extract 39 32) ?x101767) ?x244833)))))
 (let ((?x295885 (concat ((_ extract 63 56) ?x101767) ?x79498)))
 (let ((?x252914 (concat ((_ extract 31 24) ?x295885) (concat ((_ extract 23 16) ?x295885) (concat ((_ extract 15 8) ?x295885) ((_ extract 7 0) ?x295885))))))
 (let ((?x379234 (concat ((_ extract 55 48) ?x295885) (concat ((_ extract 47 40) ?x295885) (concat ((_ extract 39 32) ?x295885) ?x252914)))))
 (let ((?x7270 (concat ((_ extract 63 56) ?x295885) ?x379234)))
 (let ((?x260252 (concat ((_ extract 31 24) ?x7270) (concat ((_ extract 23 16) ?x7270) (concat ((_ extract 15 8) ?x7270) ((_ extract 7 0) ?x7270))))))
 (let ((?x268026 (concat ((_ extract 55 48) ?x7270) (concat ((_ extract 47 40) ?x7270) (concat ((_ extract 39 32) ?x7270) ?x260252)))))
 (let ((?x339629 (concat ((_ extract 63 56) ?x7270) ?x268026)))
 (let ((?x79756 (concat ((_ extract 31 24) ?x339629) (concat ((_ extract 23 16) ?x339629) (concat ((_ extract 15 8) ?x339629) ((_ extract 7 0) ?x339629))))))
 (let ((?x24660 (concat ((_ extract 55 48) ?x339629) (concat ((_ extract 47 40) ?x339629) (concat ((_ extract 39 32) ?x339629) ?x79756)))))
 (let ((?x147847 (concat ((_ extract 63 56) ?x339629) ?x24660)))
 (let ((?x204174 (concat ((_ extract 31 24) ?x147847) (concat ((_ extract 23 16) ?x147847) (concat ((_ extract 15 8) ?x147847) ((_ extract 7 0) ?x147847))))))
 (let ((?x309692 (concat ((_ extract 55 48) ?x147847) (concat ((_ extract 47 40) ?x147847) (concat ((_ extract 39 32) ?x147847) ?x204174)))))
 (let ((?x245395 (concat ((_ extract 63 56) ?x147847) ?x309692)))
 (let ((?x320857 (bvadd ?x245395 (_ bv2 64))))
 (let ((?x35872 (concat ((_ extract 31 24) ?x320857) (concat ((_ extract 23 16) ?x320857) (concat ((_ extract 15 8) ?x320857) ((_ extract 7 0) ?x320857))))))
 (let ((?x130076 (concat ((_ extract 55 48) ?x320857) (concat ((_ extract 47 40) ?x320857) (concat ((_ extract 39 32) ?x320857) ?x35872)))))
 (let ((?x11377 (concat ((_ extract 63 56) ?x320857) ?x130076)))
 (let ((?x282178 (bvadd ?x11377 (_ bv216 64))))
 (let ((?x37981 (concat ((_ extract 31 24) ?x282178) (concat ((_ extract 23 16) ?x282178) (concat ((_ extract 15 8) ?x282178) ((_ extract 7 0) ?x282178))))))
 (let ((?x1026 (concat ((_ extract 55 48) ?x282178) (concat ((_ extract 47 40) ?x282178) (concat ((_ extract 39 32) ?x282178) ?x37981)))))
 (let ((?x262983 (concat ((_ extract 63 56) ?x282178) ?x1026)))
 (not (bvsgt ?x262983 (_ bv448 64))))))))))))))))))))))))))))
(assert
 (let ((?x101767 ((_ zero_extend 32) (concat stdin7 (concat stdin6 (concat stdin5 stdin4))))))
 (let ((?x244833 (concat ((_ extract 31 24) ?x101767) (concat ((_ extract 23 16) ?x101767) (concat ((_ extract 15 8) ?x101767) ((_ extract 7 0) ?x101767))))))
 (let ((?x79498 (concat ((_ extract 55 48) ?x101767) (concat ((_ extract 47 40) ?x101767) (concat ((_ extract 39 32) ?x101767) ?x244833)))))
 (let ((?x295885 (concat ((_ extract 63 56) ?x101767) ?x79498)))
 (let ((?x252914 (concat ((_ extract 31 24) ?x295885) (concat ((_ extract 23 16) ?x295885) (concat ((_ extract 15 8) ?x295885) ((_ extract 7 0) ?x295885))))))
 (let ((?x379234 (concat ((_ extract 55 48) ?x295885) (concat ((_ extract 47 40) ?x295885) (concat ((_ extract 39 32) ?x295885) ?x252914)))))
 (let ((?x7270 (concat ((_ extract 63 56) ?x295885) ?x379234)))
 (let ((?x260252 (concat ((_ extract 31 24) ?x7270) (concat ((_ extract 23 16) ?x7270) (concat ((_ extract 15 8) ?x7270) ((_ extract 7 0) ?x7270))))))
 (let ((?x268026 (concat ((_ extract 55 48) ?x7270) (concat ((_ extract 47 40) ?x7270) (concat ((_ extract 39 32) ?x7270) ?x260252)))))
 (let ((?x339629 (concat ((_ extract 63 56) ?x7270) ?x268026)))
 (let ((?x79756 (concat ((_ extract 31 24) ?x339629) (concat ((_ extract 23 16) ?x339629) (concat ((_ extract 15 8) ?x339629) ((_ extract 7 0) ?x339629))))))
 (let ((?x24660 (concat ((_ extract 55 48) ?x339629) (concat ((_ extract 47 40) ?x339629) (concat ((_ extract 39 32) ?x339629) ?x79756)))))
 (let ((?x147847 (concat ((_ extract 63 56) ?x339629) ?x24660)))
 (let ((?x204174 (concat ((_ extract 31 24) ?x147847) (concat ((_ extract 23 16) ?x147847) (concat ((_ extract 15 8) ?x147847) ((_ extract 7 0) ?x147847))))))
 (let ((?x309692 (concat ((_ extract 55 48) ?x147847) (concat ((_ extract 47 40) ?x147847) (concat ((_ extract 39 32) ?x147847) ?x204174)))))
 (let ((?x245395 (concat ((_ extract 63 56) ?x147847) ?x309692)))
 (let ((?x320857 (bvadd ?x245395 (_ bv2 64))))
 (let ((?x35872 (concat ((_ extract 31 24) ?x320857) (concat ((_ extract 23 16) ?x320857) (concat ((_ extract 15 8) ?x320857) ((_ extract 7 0) ?x320857))))))
 (let ((?x130076 (concat ((_ extract 55 48) ?x320857) (concat ((_ extract 47 40) ?x320857) (concat ((_ extract 39 32) ?x320857) ?x35872)))))
 (let ((?x11377 (concat ((_ extract 63 56) ?x320857) ?x130076)))
 (let ((?x245165 (bvadd (bvmul ?x11377 (_ bv1 64)) (_ bv140179312209920 64))))
 (let ((?x30639 (concat ((_ extract 31 24) ?x245165) (concat ((_ extract 23 16) ?x245165) (concat ((_ extract 15 8) ?x245165) ((_ extract 7 0) ?x245165))))))
 (let ((?x67010 (concat ((_ extract 55 48) ?x245165) (concat ((_ extract 47 40) ?x245165) (concat ((_ extract 39 32) ?x245165) ?x30639)))))
 (= (concat ((_ extract 63 56) ?x245165) ?x67010) (_ bv140179312210020 64))))))))))))))))))))))))))
(assert
 (let ((?x101767 ((_ zero_extend 32) (concat stdin7 (concat stdin6 (concat stdin5 stdin4))))))
 (let ((?x244833 (concat ((_ extract 31 24) ?x101767) (concat ((_ extract 23 16) ?x101767) (concat ((_ extract 15 8) ?x101767) ((_ extract 7 0) ?x101767))))))
 (let ((?x79498 (concat ((_ extract 55 48) ?x101767) (concat ((_ extract 47 40) ?x101767) (concat ((_ extract 39 32) ?x101767) ?x244833)))))
 (let ((?x295885 (concat ((_ extract 63 56) ?x101767) ?x79498)))
 (let ((?x252914 (concat ((_ extract 31 24) ?x295885) (concat ((_ extract 23 16) ?x295885) (concat ((_ extract 15 8) ?x295885) ((_ extract 7 0) ?x295885))))))
 (let ((?x379234 (concat ((_ extract 55 48) ?x295885) (concat ((_ extract 47 40) ?x295885) (concat ((_ extract 39 32) ?x295885) ?x252914)))))
 (let ((?x7270 (concat ((_ extract 63 56) ?x295885) ?x379234)))
 (let ((?x260252 (concat ((_ extract 31 24) ?x7270) (concat ((_ extract 23 16) ?x7270) (concat ((_ extract 15 8) ?x7270) ((_ extract 7 0) ?x7270))))))
 (let ((?x268026 (concat ((_ extract 55 48) ?x7270) (concat ((_ extract 47 40) ?x7270) (concat ((_ extract 39 32) ?x7270) ?x260252)))))
 (let ((?x339629 (concat ((_ extract 63 56) ?x7270) ?x268026)))
 (let ((?x79756 (concat ((_ extract 31 24) ?x339629) (concat ((_ extract 23 16) ?x339629) (concat ((_ extract 15 8) ?x339629) ((_ extract 7 0) ?x339629))))))
 (let ((?x24660 (concat ((_ extract 55 48) ?x339629) (concat ((_ extract 47 40) ?x339629) (concat ((_ extract 39 32) ?x339629) ?x79756)))))
 (let ((?x147847 (concat ((_ extract 63 56) ?x339629) ?x24660)))
 (let ((?x204174 (concat ((_ extract 31 24) ?x147847) (concat ((_ extract 23 16) ?x147847) (concat ((_ extract 15 8) ?x147847) ((_ extract 7 0) ?x147847))))))
 (let ((?x309692 (concat ((_ extract 55 48) ?x147847) (concat ((_ extract 47 40) ?x147847) (concat ((_ extract 39 32) ?x147847) ?x204174)))))
 (let ((?x245395 (concat ((_ extract 63 56) ?x147847) ?x309692)))
 (let ((?x320857 (bvadd ?x245395 (_ bv2 64))))
 (let ((?x35872 (concat ((_ extract 31 24) ?x320857) (concat ((_ extract 23 16) ?x320857) (concat ((_ extract 15 8) ?x320857) ((_ extract 7 0) ?x320857))))))
 (let ((?x130076 (concat ((_ extract 55 48) ?x320857) (concat ((_ extract 47 40) ?x320857) (concat ((_ extract 39 32) ?x320857) ?x35872)))))
 (let ((?x11377 (concat ((_ extract 63 56) ?x320857) ?x130076)))
 (let ((?x282178 (bvadd ?x11377 (_ bv216 64))))
 (let ((?x37981 (concat ((_ extract 31 24) ?x282178) (concat ((_ extract 23 16) ?x282178) (concat ((_ extract 15 8) ?x282178) ((_ extract 7 0) ?x282178))))))
 (let ((?x1026 (concat ((_ extract 55 48) ?x282178) (concat ((_ extract 47 40) ?x282178) (concat ((_ extract 39 32) ?x282178) ?x37981)))))
 (let ((?x262983 (concat ((_ extract 63 56) ?x282178) ?x1026)))
 (let ((?x57147 (concat ((_ extract 23 16) (bvadd ?x262983 (_ bv4 64))) (concat ((_ extract 15 8) (bvadd ?x262983 (_ bv4 64))) ((_ extract 7 0) (bvadd ?x262983 (_ bv4 64)))))))
 (let ((?x37146 (concat ((_ extract 39 32) (bvadd ?x262983 (_ bv4 64))) (concat ((_ extract 31 24) (bvadd ?x262983 (_ bv4 64))) ?x57147))))
 (let ((?x133625 (concat ((_ extract 55 48) (bvadd ?x262983 (_ bv4 64))) (concat ((_ extract 47 40) (bvadd ?x262983 (_ bv4 64))) ?x37146))))
 (let ((?x72145 (concat ((_ extract 63 56) (bvadd ?x262983 (_ bv4 64))) ?x133625)))
 (not (bvslt ?x72145 ?x262983)))))))))))))))))))))))))))))))
(assert
 (let ((?x101767 ((_ zero_extend 32) (concat stdin7 (concat stdin6 (concat stdin5 stdin4))))))
 (let ((?x244833 (concat ((_ extract 31 24) ?x101767) (concat ((_ extract 23 16) ?x101767) (concat ((_ extract 15 8) ?x101767) ((_ extract 7 0) ?x101767))))))
 (let ((?x79498 (concat ((_ extract 55 48) ?x101767) (concat ((_ extract 47 40) ?x101767) (concat ((_ extract 39 32) ?x101767) ?x244833)))))
 (let ((?x295885 (concat ((_ extract 63 56) ?x101767) ?x79498)))
 (let ((?x252914 (concat ((_ extract 31 24) ?x295885) (concat ((_ extract 23 16) ?x295885) (concat ((_ extract 15 8) ?x295885) ((_ extract 7 0) ?x295885))))))
 (let ((?x379234 (concat ((_ extract 55 48) ?x295885) (concat ((_ extract 47 40) ?x295885) (concat ((_ extract 39 32) ?x295885) ?x252914)))))
 (let ((?x7270 (concat ((_ extract 63 56) ?x295885) ?x379234)))
 (let ((?x260252 (concat ((_ extract 31 24) ?x7270) (concat ((_ extract 23 16) ?x7270) (concat ((_ extract 15 8) ?x7270) ((_ extract 7 0) ?x7270))))))
 (let ((?x268026 (concat ((_ extract 55 48) ?x7270) (concat ((_ extract 47 40) ?x7270) (concat ((_ extract 39 32) ?x7270) ?x260252)))))
 (let ((?x339629 (concat ((_ extract 63 56) ?x7270) ?x268026)))
 (let ((?x79756 (concat ((_ extract 31 24) ?x339629) (concat ((_ extract 23 16) ?x339629) (concat ((_ extract 15 8) ?x339629) ((_ extract 7 0) ?x339629))))))
 (let ((?x24660 (concat ((_ extract 55 48) ?x339629) (concat ((_ extract 47 40) ?x339629) (concat ((_ extract 39 32) ?x339629) ?x79756)))))
 (let ((?x147847 (concat ((_ extract 63 56) ?x339629) ?x24660)))
 (let ((?x204174 (concat ((_ extract 31 24) ?x147847) (concat ((_ extract 23 16) ?x147847) (concat ((_ extract 15 8) ?x147847) ((_ extract 7 0) ?x147847))))))
 (let ((?x309692 (concat ((_ extract 55 48) ?x147847) (concat ((_ extract 47 40) ?x147847) (concat ((_ extract 39 32) ?x147847) ?x204174)))))
 (let ((?x245395 (concat ((_ extract 63 56) ?x147847) ?x309692)))
 (let ((?x320857 (bvadd ?x245395 (_ bv2 64))))
 (let ((?x35872 (concat ((_ extract 31 24) ?x320857) (concat ((_ extract 23 16) ?x320857) (concat ((_ extract 15 8) ?x320857) ((_ extract 7 0) ?x320857))))))
 (let ((?x130076 (concat ((_ extract 55 48) ?x320857) (concat ((_ extract 47 40) ?x320857) (concat ((_ extract 39 32) ?x320857) ?x35872)))))
 (let ((?x11377 (concat ((_ extract 63 56) ?x320857) ?x130076)))
 (let ((?x282178 (bvadd ?x11377 (_ bv216 64))))
 (let ((?x37981 (concat ((_ extract 31 24) ?x282178) (concat ((_ extract 23 16) ?x282178) (concat ((_ extract 15 8) ?x282178) ((_ extract 7 0) ?x282178))))))
 (let ((?x1026 (concat ((_ extract 55 48) ?x282178) (concat ((_ extract 47 40) ?x282178) (concat ((_ extract 39 32) ?x282178) ?x37981)))))
 (let ((?x262983 (concat ((_ extract 63 56) ?x282178) ?x1026)))
 (let ((?x264204 (bvadd ?x262983 (_ bv4 64))))
 (let ((?x229713 (concat ((_ extract 31 24) ?x264204) (concat ((_ extract 23 16) ?x264204) (concat ((_ extract 15 8) ?x264204) ((_ extract 7 0) ?x264204))))))
 (let ((?x133625 (concat ((_ extract 55 48) ?x264204) (concat ((_ extract 47 40) ?x264204) (concat ((_ extract 39 32) ?x264204) ?x229713)))))
 (let ((?x72145 (concat ((_ extract 63 56) ?x264204) ?x133625)))
 (not (bvslt ?x72145 (_ bv4 64))))))))))))))))))))))))))))))))
(assert
 (let ((?x101767 ((_ zero_extend 32) (concat stdin7 (concat stdin6 (concat stdin5 stdin4))))))
 (let ((?x244833 (concat ((_ extract 31 24) ?x101767) (concat ((_ extract 23 16) ?x101767) (concat ((_ extract 15 8) ?x101767) ((_ extract 7 0) ?x101767))))))
 (let ((?x79498 (concat ((_ extract 55 48) ?x101767) (concat ((_ extract 47 40) ?x101767) (concat ((_ extract 39 32) ?x101767) ?x244833)))))
 (let ((?x295885 (concat ((_ extract 63 56) ?x101767) ?x79498)))
 (let ((?x252914 (concat ((_ extract 31 24) ?x295885) (concat ((_ extract 23 16) ?x295885) (concat ((_ extract 15 8) ?x295885) ((_ extract 7 0) ?x295885))))))
 (let ((?x379234 (concat ((_ extract 55 48) ?x295885) (concat ((_ extract 47 40) ?x295885) (concat ((_ extract 39 32) ?x295885) ?x252914)))))
 (let ((?x7270 (concat ((_ extract 63 56) ?x295885) ?x379234)))
 (let ((?x260252 (concat ((_ extract 31 24) ?x7270) (concat ((_ extract 23 16) ?x7270) (concat ((_ extract 15 8) ?x7270) ((_ extract 7 0) ?x7270))))))
 (let ((?x268026 (concat ((_ extract 55 48) ?x7270) (concat ((_ extract 47 40) ?x7270) (concat ((_ extract 39 32) ?x7270) ?x260252)))))
 (let ((?x339629 (concat ((_ extract 63 56) ?x7270) ?x268026)))
 (let ((?x79756 (concat ((_ extract 31 24) ?x339629) (concat ((_ extract 23 16) ?x339629) (concat ((_ extract 15 8) ?x339629) ((_ extract 7 0) ?x339629))))))
 (let ((?x24660 (concat ((_ extract 55 48) ?x339629) (concat ((_ extract 47 40) ?x339629) (concat ((_ extract 39 32) ?x339629) ?x79756)))))
 (let ((?x147847 (concat ((_ extract 63 56) ?x339629) ?x24660)))
 (let ((?x204174 (concat ((_ extract 31 24) ?x147847) (concat ((_ extract 23 16) ?x147847) (concat ((_ extract 15 8) ?x147847) ((_ extract 7 0) ?x147847))))))
 (let ((?x309692 (concat ((_ extract 55 48) ?x147847) (concat ((_ extract 47 40) ?x147847) (concat ((_ extract 39 32) ?x147847) ?x204174)))))
 (let ((?x245395 (concat ((_ extract 63 56) ?x147847) ?x309692)))
 (let ((?x320857 (bvadd ?x245395 (_ bv2 64))))
 (let ((?x35872 (concat ((_ extract 31 24) ?x320857) (concat ((_ extract 23 16) ?x320857) (concat ((_ extract 15 8) ?x320857) ((_ extract 7 0) ?x320857))))))
 (let ((?x130076 (concat ((_ extract 55 48) ?x320857) (concat ((_ extract 47 40) ?x320857) (concat ((_ extract 39 32) ?x320857) ?x35872)))))
 (let ((?x11377 (concat ((_ extract 63 56) ?x320857) ?x130076)))
 (let ((?x282178 (bvadd ?x11377 (_ bv216 64))))
 (let ((?x37981 (concat ((_ extract 31 24) ?x282178) (concat ((_ extract 23 16) ?x282178) (concat ((_ extract 15 8) ?x282178) ((_ extract 7 0) ?x282178))))))
 (let ((?x1026 (concat ((_ extract 55 48) ?x282178) (concat ((_ extract 47 40) ?x282178) (concat ((_ extract 39 32) ?x282178) ?x37981)))))
 (let ((?x262983 (concat ((_ extract 63 56) ?x282178) ?x1026)))
 (let ((?x264204 (bvadd ?x262983 (_ bv4 64))))
 (let ((?x229713 (concat ((_ extract 31 24) ?x264204) (concat ((_ extract 23 16) ?x264204) (concat ((_ extract 15 8) ?x264204) ((_ extract 7 0) ?x264204))))))
 (let ((?x133625 (concat ((_ extract 55 48) ?x264204) (concat ((_ extract 47 40) ?x264204) (concat ((_ extract 39 32) ?x264204) ?x229713)))))
 (let ((?x72145 (concat ((_ extract 63 56) ?x264204) ?x133625)))
 (not (bvsgt ?x72145 (_ bv448 64))))))))))))))))))))))))))))))))
(assert
 (let ((?x101767 ((_ zero_extend 32) (concat stdin7 (concat stdin6 (concat stdin5 stdin4))))))
 (let ((?x244833 (concat ((_ extract 31 24) ?x101767) (concat ((_ extract 23 16) ?x101767) (concat ((_ extract 15 8) ?x101767) ((_ extract 7 0) ?x101767))))))
 (let ((?x79498 (concat ((_ extract 55 48) ?x101767) (concat ((_ extract 47 40) ?x101767) (concat ((_ extract 39 32) ?x101767) ?x244833)))))
 (let ((?x295885 (concat ((_ extract 63 56) ?x101767) ?x79498)))
 (let ((?x252914 (concat ((_ extract 31 24) ?x295885) (concat ((_ extract 23 16) ?x295885) (concat ((_ extract 15 8) ?x295885) ((_ extract 7 0) ?x295885))))))
 (let ((?x379234 (concat ((_ extract 55 48) ?x295885) (concat ((_ extract 47 40) ?x295885) (concat ((_ extract 39 32) ?x295885) ?x252914)))))
 (let ((?x7270 (concat ((_ extract 63 56) ?x295885) ?x379234)))
 (let ((?x260252 (concat ((_ extract 31 24) ?x7270) (concat ((_ extract 23 16) ?x7270) (concat ((_ extract 15 8) ?x7270) ((_ extract 7 0) ?x7270))))))
 (let ((?x268026 (concat ((_ extract 55 48) ?x7270) (concat ((_ extract 47 40) ?x7270) (concat ((_ extract 39 32) ?x7270) ?x260252)))))
 (let ((?x339629 (concat ((_ extract 63 56) ?x7270) ?x268026)))
 (let ((?x79756 (concat ((_ extract 31 24) ?x339629) (concat ((_ extract 23 16) ?x339629) (concat ((_ extract 15 8) ?x339629) ((_ extract 7 0) ?x339629))))))
 (let ((?x24660 (concat ((_ extract 55 48) ?x339629) (concat ((_ extract 47 40) ?x339629) (concat ((_ extract 39 32) ?x339629) ?x79756)))))
 (let ((?x147847 (concat ((_ extract 63 56) ?x339629) ?x24660)))
 (let ((?x204174 (concat ((_ extract 31 24) ?x147847) (concat ((_ extract 23 16) ?x147847) (concat ((_ extract 15 8) ?x147847) ((_ extract 7 0) ?x147847))))))
 (let ((?x309692 (concat ((_ extract 55 48) ?x147847) (concat ((_ extract 47 40) ?x147847) (concat ((_ extract 39 32) ?x147847) ?x204174)))))
 (let ((?x245395 (concat ((_ extract 63 56) ?x147847) ?x309692)))
 (let ((?x320857 (bvadd ?x245395 (_ bv2 64))))
 (let ((?x35872 (concat ((_ extract 31 24) ?x320857) (concat ((_ extract 23 16) ?x320857) (concat ((_ extract 15 8) ?x320857) ((_ extract 7 0) ?x320857))))))
 (let ((?x130076 (concat ((_ extract 55 48) ?x320857) (concat ((_ extract 47 40) ?x320857) (concat ((_ extract 39 32) ?x320857) ?x35872)))))
 (let ((?x11377 (concat ((_ extract 63 56) ?x320857) ?x130076)))
 (let ((?x282178 (bvadd ?x11377 (_ bv216 64))))
 (let ((?x37981 (concat ((_ extract 31 24) ?x282178) (concat ((_ extract 23 16) ?x282178) (concat ((_ extract 15 8) ?x282178) ((_ extract 7 0) ?x282178))))))
 (let ((?x1026 (concat ((_ extract 55 48) ?x282178) (concat ((_ extract 47 40) ?x282178) (concat ((_ extract 39 32) ?x282178) ?x37981)))))
 (let ((?x262983 (concat ((_ extract 63 56) ?x282178) ?x1026)))
 (let ((?x249034 (bvadd (bvmul ?x262983 (_ bv1 64)) (_ bv140179312209920 64))))
 (let ((?x78823 (concat ((_ extract 31 24) ?x249034) (concat ((_ extract 23 16) ?x249034) (concat ((_ extract 15 8) ?x249034) ((_ extract 7 0) ?x249034))))))
 (let ((?x166059 (concat ((_ extract 55 48) ?x249034) (concat ((_ extract 47 40) ?x249034) (concat ((_ extract 39 32) ?x249034) ?x78823)))))
 (= (concat ((_ extract 63 56) ?x249034) ?x166059) (_ bv140179312210236 64))))))))))))))))))))))))))))))
(check-sat)
